NAME
ROWS
 N  OBJ
 L  c2
 G  c1
 E  c3
COLUMNS
    x         OBJ       1
    y         c1        1
    tau       c3        1
RHS
    rhs       c2        0
    rhs       c1        0.7071067811865476
    rhs       c3        1
RANGES
BOUNDS
 FR bounds    x
 LO bounds    y         0
 PL bounds    y
 LO bounds    tau       0
 PL bounds    tau
QCMATRIX   c2
    x         x         1
    y         y         1
    tau       tau       -1
ENDATA
